DIR: 0.0, EFF: 0.8333333333333333, INT: 0.08333333333333333, OBJ: 0.08333333333333333
original problem has 2013 variables (1464 bin, 183 int, 0 impl, 366 cont) and 233 constraints
1/1 feasible solution given by solution candidate storage, new primal bound 3.311180e+03

presolving:
   (0.0s) running MILP presolver
   (0.0s) MILP presolver found nothing
   (0.0s) probing: 51/1464 (3.5%) - 0 fixings, 0 aggregations, 0 implications, 0 bound changes
   (0.0s) probing aborted: 50/50 successive totally useless probings
presolving (1 rounds: 1 fast, 1 medium, 1 exhaustive):
 0 deleted vars, 0 deleted constraints, 0 added constraints, 549 tightened bounds, 0 added holes, 0 changed sides, 0 changed coefficients
 0 implications, 0 cliques
presolved problem has 2013 variables (1464 bin, 183 int, 0 impl, 366 cont) and 233 constraints
    233 constraints of type <linear>
Presolving Time: 0.01
transformed 1/1 original solutions to the transformed problem space

 time | node  | left  |LP iter|LP it/n|mem/heur|mdpt |vars |cons |rows |cuts |sepa|confs|strbr|  dualbound   | primalbound  |  gap   | compl. 
  0.0s|     1 |     0 |   270 |     - |  8240k |   0 |2013 | 233 | 233 |   0 |  0 |   0 |   0 | 2.879066e+03 | 3.311180e+03 |  15.01%| unknown
Computing relative interior point (time limit: 19.9697, iter limit: 2700) ...
  0.3s|     1 |     0 |   297 |     - |    11M |   0 |2013 | 233 | 243 |  10 |  1 |   0 |   0 | 2.939255e+03 | 3.311180e+03 |  12.65%| unknown
  0.3s|     1 |     0 |   324 |     - |    12M |   0 |2013 | 233 | 253 |  20 |  2 |   0 |   0 | 2.995775e+03 | 3.311180e+03 |  10.53%| unknown
  0.3s|     1 |     0 |   341 |     - |    13M |   0 |2013 | 233 | 263 |  30 |  3 |   0 |   0 | 3.041653e+03 | 3.311180e+03 |   8.86%| unknown
  0.3s|     1 |     0 |   363 |     - |    13M |   0 |2013 | 233 | 273 |  40 |  4 |   0 |   0 | 3.062685e+03 | 3.311180e+03 |   8.11%| unknown
  0.3s|     1 |     0 |   393 |     - |    14M |   0 |2013 | 233 | 283 |  50 |  5 |   0 |   0 | 3.085922e+03 | 3.311180e+03 |   7.30%| unknown
  0.3s|     1 |     0 |   425 |     - |    15M |   0 |2013 | 233 | 293 |  60 |  6 |   0 |   0 | 3.099694e+03 | 3.311180e+03 |   6.82%| unknown
  0.4s|     1 |     0 |   460 |     - |    16M |   0 |2013 | 233 | 303 |  70 |  7 |   0 |   0 | 3.112597e+03 | 3.311180e+03 |   6.38%| unknown
  0.4s|     1 |     0 |   482 |     - |    17M |   0 |2013 | 233 | 313 |  80 |  8 |   0 |   0 | 3.121847e+03 | 3.311180e+03 |   6.06%| unknown
  0.5s|     1 |     0 |   519 |     - |    18M |   0 |2013 | 233 | 323 |  90 |  9 |   0 |   0 | 3.131830e+03 | 3.311180e+03 |   5.73%| unknown
  0.5s|     1 |     0 |   542 |     - |    19M |   0 |2013 | 233 | 333 | 100 | 10 |   0 |   0 | 3.135214e+03 | 3.311180e+03 |   5.61%| unknown
  0.5s|     1 |     0 |   591 |     - |    20M |   0 |2013 | 233 | 343 | 110 | 11 |   0 |   0 | 3.139290e+03 | 3.311180e+03 |   5.48%| unknown
  0.6s|     1 |     0 |   634 |     - |    21M |   0 |2013 | 233 | 353 | 120 | 12 |   0 |   0 | 3.141916e+03 | 3.311180e+03 |   5.39%| unknown
  0.6s|     1 |     0 |   689 |     - |    21M |   0 |2013 | 233 | 363 | 130 | 13 |   0 |   0 | 3.152574e+03 | 3.311180e+03 |   5.03%| unknown
  0.7s|     1 |     0 |   723 |     - |    21M |   0 |2013 | 233 | 373 | 140 | 14 |   0 |   0 | 3.154591e+03 | 3.311180e+03 |   4.96%| unknown
 time | node  | left  |LP iter|LP it/n|mem/heur|mdpt |vars |cons |rows |cuts |sepa|confs|strbr|  dualbound   | primalbound  |  gap   | compl. 
  0.7s|     1 |     0 |   772 |     - |    23M |   0 |2013 | 233 | 383 | 150 | 15 |   0 |   0 | 3.155677e+03 | 3.311180e+03 |   4.93%| unknown
  0.8s|     1 |     0 |   830 |     - |    25M |   0 |2013 | 233 | 393 | 160 | 16 |   0 |   0 | 3.159120e+03 | 3.311180e+03 |   4.81%| unknown
  0.8s|     1 |     0 |   868 |     - |    25M |   0 |2013 | 233 | 394 | 170 | 17 |   0 |   0 | 3.160379e+03 | 3.311180e+03 |   4.77%| unknown
  0.9s|     1 |     0 |   976 |     - |    26M |   0 |2013 | 233 | 404 | 180 | 18 |   0 |   0 | 3.164616e+03 | 3.311180e+03 |   4.63%| unknown
  1.0s|     1 |     0 |  1010 |     - |    26M |   0 |2013 | 233 | 414 | 190 | 19 |   0 |   0 | 3.165904e+03 | 3.311180e+03 |   4.59%| unknown
  1.1s|     1 |     0 |  1063 |     - |    26M |   0 |2013 | 233 | 424 | 200 | 20 |   0 |   0 | 3.167169e+03 | 3.311180e+03 |   4.55%| unknown
  1.1s|     1 |     0 |  1128 |     - |    26M |   0 |2013 | 233 | 434 | 210 | 21 |   0 |   0 | 3.169093e+03 | 3.311180e+03 |   4.48%| unknown
  1.2s|     1 |     0 |  1215 |     - |    27M |   0 |2013 | 233 | 444 | 220 | 22 |   0 |   0 | 3.171071e+03 | 3.311180e+03 |   4.42%| unknown
  1.3s|     1 |     0 |  1338 |     - |    27M |   0 |2013 | 233 | 424 | 230 | 23 |   0 |   0 | 3.174062e+03 | 3.311180e+03 |   4.32%| unknown
  1.4s|     1 |     0 |  1414 |     - |    28M |   0 |2013 | 233 | 434 | 240 | 24 |   0 |   0 | 3.175355e+03 | 3.311180e+03 |   4.28%| unknown
  1.5s|     1 |     0 |  1476 |     - |    28M |   0 |2013 | 233 | 444 | 250 | 25 |   0 |   0 | 3.176535e+03 | 3.311180e+03 |   4.24%| unknown
  1.6s|     1 |     0 |  1559 |     - |    28M |   0 |2013 | 233 | 454 | 260 | 26 |   0 |   0 | 3.177831e+03 | 3.311180e+03 |   4.20%| unknown
  1.7s|     1 |     0 |  1651 |     - |    28M |   0 |2013 | 233 | 464 | 270 | 27 |   0 |   0 | 3.179501e+03 | 3.311180e+03 |   4.14%| unknown
  1.9s|     1 |     0 |  1766 |     - |    28M |   0 |2013 | 233 | 474 | 280 | 28 |   0 |   0 | 3.182415e+03 | 3.311180e+03 |   4.05%| unknown
  2.0s|     1 |     0 |  1878 |     - |    29M |   0 |2013 | 233 | 446 | 290 | 29 |   0 |   0 | 3.185044e+03 | 3.311180e+03 |   3.96%| unknown
 time | node  | left  |LP iter|LP it/n|mem/heur|mdpt |vars |cons |rows |cuts |sepa|confs|strbr|  dualbound   | primalbound  |  gap   | compl. 
  2.1s|     1 |     0 |  1953 |     - |    29M |   0 |2013 | 233 | 456 | 300 | 30 |   0 |   0 | 3.186330e+03 | 3.311180e+03 |   3.92%| unknown
  2.3s|     1 |     0 |  2109 |     - |    29M |   0 |2013 | 233 | 466 | 310 | 31 |   0 |   0 | 3.189066e+03 | 3.311180e+03 |   3.83%| unknown
  2.5s|     1 |     0 |  2286 |     - |    30M |   0 |2013 | 233 | 476 | 320 | 32 |   0 |   0 | 3.191511e+03 | 3.311180e+03 |   3.75%| unknown
  2.6s|     1 |     0 |  2359 |     - |    30M |   0 |2013 | 233 | 486 | 330 | 33 |   0 |   0 | 3.192219e+03 | 3.311180e+03 |   3.73%| unknown
  2.8s|     1 |     0 |  2481 |     - |    31M |   0 |2013 | 233 | 496 | 340 | 34 |   0 |   0 | 3.192786e+03 | 3.311180e+03 |   3.71%| unknown
  3.0s|     1 |     0 |  2564 |     - |    32M |   0 |2013 | 233 | 464 | 350 | 35 |   0 |   0 | 3.193180e+03 | 3.311180e+03 |   3.70%| unknown
  3.1s|     1 |     0 |  2671 |     - |    32M |   0 |2013 | 233 | 474 | 360 | 36 |   0 |   0 | 3.195501e+03 | 3.311180e+03 |   3.62%| unknown
  3.3s|     1 |     0 |  2758 |     - |    32M |   0 |2013 | 233 | 484 | 370 | 37 |   0 |   0 | 3.196108e+03 | 3.311180e+03 |   3.60%| unknown
  3.5s|     1 |     0 |  2849 |     - |    33M |   0 |2013 | 233 | 494 | 380 | 38 |   0 |   0 | 3.196436e+03 | 3.311180e+03 |   3.59%| unknown
  3.7s|     1 |     0 |  2930 |     - |    33M |   0 |2013 | 233 | 504 | 390 | 39 |   0 |   0 | 3.197029e+03 | 3.311180e+03 |   3.57%| unknown
  3.9s|     1 |     0 |  3079 |     - |    33M |   0 |2013 | 233 | 514 | 400 | 40 |   0 |   0 | 3.197994e+03 | 3.311180e+03 |   3.54%| unknown
  4.1s|     1 |     0 |  3144 |     - |    33M |   0 |2013 | 233 | 479 | 410 | 41 |   0 |   0 | 3.198452e+03 | 3.311180e+03 |   3.52%| unknown
  4.3s|     1 |     0 |  3250 |     - |    35M |   0 |2013 | 233 | 489 | 420 | 42 |   0 |   0 | 3.199470e+03 | 3.311180e+03 |   3.49%| unknown
  4.5s|     1 |     0 |  3365 |     - |    35M |   0 |2013 | 233 | 499 | 430 | 43 |   0 |   0 | 3.200184e+03 | 3.311180e+03 |   3.47%| unknown
  4.7s|     1 |     0 |  3473 |     - |    36M |   0 |2013 | 233 | 509 | 440 | 44 |   0 |   0 | 3.200982e+03 | 3.311180e+03 |   3.44%| unknown
 time | node  | left  |LP iter|LP it/n|mem/heur|mdpt |vars |cons |rows |cuts |sepa|confs|strbr|  dualbound   | primalbound  |  gap   | compl. 
  4.9s|     1 |     0 |  3754 |     - |    37M |   0 |2013 | 233 | 519 | 450 | 45 |   0 |   0 | 3.202583e+03 | 3.311180e+03 |   3.39%| unknown
  5.1s|     1 |     0 |  3796 |     - |    37M |   0 |2013 | 233 | 529 | 460 | 46 |   0 |   0 | 3.202673e+03 | 3.311180e+03 |   3.39%| unknown
  5.3s|     1 |     0 |  4063 |     - |    38M |   0 |2013 | 233 | 495 | 470 | 47 |   0 |   0 | 3.203951e+03 | 3.311180e+03 |   3.35%| unknown
  5.5s|     1 |     0 |  4230 |     - |    38M |   0 |2013 | 233 | 505 | 480 | 48 |   0 |   0 | 3.204683e+03 | 3.311180e+03 |   3.32%| unknown
  5.7s|     1 |     0 |  4408 |     - |    39M |   0 |2013 | 233 | 515 | 490 | 49 |   0 |   0 | 3.205325e+03 | 3.311180e+03 |   3.30%| unknown
  5.7s|     1 |     0 |  4737 |     - |    39M |   0 |2013 | 233 | 525 | 500 | 50 |   0 |   0 | 3.210472e+03 | 3.311180e+03 |   3.14%| unknown
  5.8s|     1 |     0 |  5023 |     - |    39M |   0 |2013 | 233 | 535 | 510 | 51 |   0 |   0 | 3.211179e+03 | 3.311180e+03 |   3.11%| unknown
  5.8s|     1 |     2 |  5023 |     - |    39M |   0 |2013 | 233 | 535 | 510 | 51 |   0 |   0 | 3.211179e+03 | 3.311180e+03 |   3.11%| unknown

SCIP Status        : solving was interrupted [node limit reached]
Solving Time (sec) : 5.77
Solving Nodes      : 1
Primal Bound       : +3.31117998412251e+03 (1 solutions)
Dual Bound         : +3.21117866703225e+03
Gap                : 3.11 %
